HmaxDs = 2.000000
HmaxUB_percent = 1.078831
HmaxUB_real = 7836.315523
FTnetDs = 2.000000
FTnetUB_percent = 1.850134
FTnetUB_real = 35938.473211
TIFgap = 0.400000
LimCIPF = 74.75492388
SCIP version 1.1.0 [precision: 8 byte] [memory: block] [mode: optimized] [LP solver: Clp 1.8.2]
Copyright (c) 2002-2008 Konrad-Zuse-Zentrum fuer Informationstechnik Berlin (ZIB)

reading user parameter file </home/fabio/docs/hierarquia/models/scip.set>

read problem <data.N30.I1.s1.cluster3.T7.GL1.W1.TIFgap0.4.mps.gz>
============

original problem has 530 variables (273 bin, 0 int, 0 impl, 257 cont) and 196 constraints

solve problem
=============

presolving:
(round 1) 3 del vars, 3 del conss, 4 chg bounds, 0 chg sides, 42 chg coeffs, 0 upgd conss, 0 impls, 42 clqs
(round 2) 5 del vars, 3 del conss, 4 chg bounds, 1 chg sides, 42 chg coeffs, 0 upgd conss, 0 impls, 42 clqs
(round 3) 5 del vars, 3 del conss, 4 chg bounds, 3 chg sides, 42 chg coeffs, 0 upgd conss, 0 impls, 42 clqs
(round 4) 5 del vars, 4 del conss, 4 chg bounds, 3 chg sides, 42 chg coeffs, 43 upgd conss, 0 impls, 42 clqs
presolving (5 rounds):
 5 deleted vars, 4 deleted constraints, 4 tightened bounds, 0 added holes, 3 changed sides, 42 changed coefficients
 1690 implications, 42 cliques
presolved problem has 525 variables (273 bin, 0 int, 0 impl, 252 cont) and 192 constraints
      1 constraints of type <knapsack>
     42 constraints of type <setppc>
    149 constraints of type <linear>
Presolving Time: 0.07

 time | node  | left  |LP iter| mem |mdpt |frac |vars |cons |ccons|cols |rows |cuts |confs|strbr|  dualbound   | primalbound  |  gap   
  0.1s|     1 |     0 |   152 |1387k|   0 |  74 | 525 | 192 | 192 | 525 | 192 |   0 |   0 |   0 | 6.444856e+01 |      --      |    Inf 
  0.3s|     1 |     0 |   619 |1534k|   0 |  63 | 525 | 192 | 192 | 525 | 218 |  26 |   0 |   0 | 7.448868e+03 |      --      |    Inf 
  0.5s|     1 |     0 |   703 |1584k|   0 |  66 | 525 | 192 | 192 | 525 | 244 |  52 |   0 |   0 | 8.152709e+03 |      --      |    Inf 
  0.8s|     1 |     0 |   859 |1640k|   0 |  70 | 525 | 192 | 192 | 525 | 268 |  76 |   0 |   0 | 8.794981e+03 |      --      |    Inf 
  1.2s|     1 |     0 |   976 |1686k|   0 |  72 | 525 | 192 | 192 | 525 | 291 |  99 |   0 |   0 | 9.687742e+03 |      --      |    Inf 
  1.6s|     1 |     0 |  1120 |1741k|   0 |  70 | 525 | 192 | 192 | 525 | 315 | 123 |   0 |   0 | 9.940711e+03 |      --      |    Inf 
  2.0s|     1 |     0 |  1337 |1780k|   0 |  79 | 525 | 192 | 192 | 525 | 337 | 145 |   0 |   0 | 1.169429e+04 |      --      |    Inf 
  2.2s|     1 |     0 |  1406 |1799k|   0 |  75 | 525 | 192 | 192 | 525 | 345 | 153 |   0 |   0 | 1.182185e+04 |      --      |    Inf 
  2.4s|     1 |     0 |  1479 |1810k|   0 |  76 | 525 | 192 | 192 | 525 | 353 | 161 |   0 |   0 | 1.195426e+04 |      --      |    Inf 
  2.7s|     1 |     0 |  1565 |1829k|   0 |  76 | 525 | 192 | 192 | 525 | 361 | 169 |   0 |   0 | 1.206054e+04 |      --      |    Inf 
  3.0s|     1 |     0 |  1618 |1835k|   0 |  79 | 525 | 192 | 192 | 525 | 365 | 173 |   0 |   0 | 1.208968e+04 |      --      |    Inf 
  3.0s|     1 |     0 |  1637 |1836k|   0 |  76 | 525 | 192 | 192 | 525 | 366 | 174 |   0 |   0 | 1.209788e+04 |      --      |    Inf 
  7.2s|     1 |     2 |  1637 |1840k|   0 |  76 | 525 | 192 | 192 | 525 | 366 | 174 |   0 |  32 | 1.209788e+04 |      --      |    Inf 
 21.7s|   100 |    21 | 18189 |1937k|  15 |   - | 525 | 225 | 154 |   0 |   0 | 174 |  33 | 718 | 1.255721e+04 |      --      |    Inf 
 24.0s|   200 |    24 | 24460 |1977k|  26 |   - | 525 | 303 |  73 |   0 |   0 | 174 | 111 | 824 | 1.255721e+04 |      --      |    Inf 
 time | node  | left  |LP iter| mem |mdpt |frac |vars |cons |ccons|cols |rows |cuts |confs|strbr|  dualbound   | primalbound  |  gap   
 26.6s|   300 |    31 | 36887 |2004k|  26 |  28 | 525 | 340 | 157 | 525 | 296 | 174 | 148 | 877 | 1.261452e+04 |      --      |    Inf 
 30.4s|   400 |    39 | 53701 |2033k|  26 |   - | 525 | 370 | 125 |   0 |   0 | 174 | 178 | 943 | 1.261452e+04 |      --      |    Inf 
 34.2s|   500 |    57 | 71583 |2050k|  31 |   - | 525 | 385 | 271 | 525 | 296 | 174 | 193 |1002 | 1.288286e+04 |      --      |    Inf 
 37.8s|   600 |    75 | 89783 |2084k|  31 |  34 | 525 | 408 | 272 | 525 | 296 | 174 | 216 |1048 | 1.313839e+04 |      --      |    Inf 
 40.3s|   700 |    89 |102588 |2122k|  31 |  37 | 525 | 439 | 358 | 525 | 296 | 174 | 247 |1076 | 1.320635e+04 |      --      |    Inf 
 43.5s|   800 |    99 |120652 |2145k|  31 |  49 | 525 | 457 | 237 | 525 | 296 | 174 | 265 |1100 | 1.403703e+04 |      --      |    Inf 
 45.7s|   900 |    98 |133045 |2166k|  32 |  37 | 525 | 491 | 269 | 525 | 296 | 174 | 299 |1120 | 1.493633e+04 |      --      |    Inf 
 48.0s|  1000 |    73 |144409 |2164k|  36 |   - | 525 | 531 | 203 |   0 |   0 | 174 | 339 |1160 | 1.587853e+04 |      --      |    Inf 

SCIP Status        : problem is solved [infeasible]
Solving Time (sec) : 49.40
Solving Nodes      : 1057
Primal Bound       : +1.00000000000000e+20 (0 solutions)
Dual Bound         : +1.00000000000000e+20
Gap                : 0.00 %

primal solution:
================

no solution available

Statistics
==========

SCIP Status        : problem is solved [infeasible]
Solving Time       :      49.40
Original Problem   :
  Problem name     : labtel
  Variables        : 530 (273 binary, 0 integer, 0 implicit integer, 257 continuous)
  Constraints      : 196 initial, 196 maximal
Presolved Problem  :
  Problem name     : t_labtel
  Variables        : 525 (273 binary, 0 integer, 0 implicit integer, 252 continuous)
  Constraints      : 192 initial, 587 maximal
Presolvers         :       Time  FixedVars   AggrVars   ChgTypes  ChgBounds   AddHoles    DelCons   ChgSides   ChgCoefs
  trivial          :       0.00          0          0          0          0          0          0          0          0
  dualfix          :       0.00          0          0          0          0          0          0          0          0
  boundshift       :       0.00          0          0          0          0          0          0          0          0
  inttobinary      :       0.00          0          0          0          0          0          0          0          0
  implics          :       0.00          0          0          0          0          0          0          0          0
  probing          :       0.07          0          0          0          0          0          0          0          0
  knapsack         :       0.00          0          0          0          0          0          0          0          0
  setppc           :       0.00          0          0          0          0          0          0          0          0
  linear           :       0.00          0          5          0          4          0          4          3         42
  logicor          :       0.00          0          0          0          0          0          0          0          0
  bounddisjunction :       0.00          0          0          0          0          0          0          0          0
  root node        :          -          2          -          -          2          -          -          -          -
Constraints        :     Number  #Separate #Propagate    #EnfoLP    #EnfoPS    Cutoffs    DomReds       Cuts      Conss   Children
  integral         :          0          0          0        583          0          4         51          0          0       1082
  knapsack         :          1         12       4411          0          0          2         29          0          0          0
  setppc           :         42         12       4417          0          0         25      32354          0          0          0
  linear           :        149         12       4400          0          0        176      25615          0          0          0
  logicor          :          0+         0       1553          0          0          9        603          0          0          0
  bounddisjunction :          0+         0        653          0          0          0          0          0          0          0
  countsols        :          0          0          0          0          0          0          0          0          0          0
Constraint Timings :  TotalTime   Separate  Propagate     EnfoLP     EnfoPS
  integral         :      18.56       0.00       0.00      18.56       0.00
  knapsack         :       0.02       0.00       0.02       0.00       0.00
  setppc           :       0.15       0.00       0.15       0.00       0.00
  linear           :       0.42       0.01       0.41       0.00       0.00
  logicor          :       0.01       0.00       0.01       0.00       0.00
  bounddisjunction :       0.00       0.00       0.00       0.00       0.00
  countsols        :       0.00       0.00       0.00       0.00       0.00
Propagators        :       Time      Calls    Cutoffs    DomReds
  rootredcost      :       0.00          0          0          0
  pseudoobj        :       0.04       3857          0          0
Conflict Analysis  :       Time      Calls    Success  Conflicts   Literals    Reconvs ReconvLits   LP Iters
  propagation      :       0.00        212        212        763       24.0          5       13.6          -
  infeasible LP    :       0.06        317          0          0        0.0          0        0.0          0
  bound exceed. LP :       0.00          0          0          0        0.0          0        0.0          0
  strong branching :       0.00          0          0          0        0.0          0        0.0          0
  pseudo solution  :       0.00          0          0          0        0.0          0        0.0          -
  applied globally :          -          -          -        395       12.9          -          -          -
  applied locally  :          -          -          -          0        0.0          -          -          -
Separators         :       Time      Calls    Cutoffs    DomReds       Cuts      Conss
  cut pool         :       0.00         11          -          -         37          -    (maximal pool size: 323)
  redcost          :       0.03        597          0         24          0          0
  impliedbounds    :       0.00         12          0          0          0          0
  intobj           :       0.00          0          0          0          0          0
  gomory           :       0.17         12          0          0         11          0
  strongcg         :       0.10         12          0          0          0          0
  cmir             :       0.99         10          0          0        284          0
  flowcover        :       1.34         10          0          0         52          0
  clique           :       0.00         12          0          0          0          0
  zerohalf         :       0.00          0          0          0          0          0
  mcf              :       0.00          0          0          0          0          0
Pricers            :       Time      Calls       Vars
  problem variables:       0.00          0          0
Branching Rules    :       Time      Calls    Cutoffs    DomReds       Cuts      Conss   Children
  relpscost        :      18.55        583          4         51          0          0       1082
  pscost           :       0.00          0          0          0          0          0          0
  inference        :       0.00          0          0          0          0          0          0
  mostinf          :       0.00          0          0          0          0          0          0
  leastinf         :       0.00          0          0          0          0          0          0
  fullstrong       :       0.00          0          0          0          0          0          0
  allfullstrong    :       0.00          0          0          0          0          0          0
  random           :       0.00          0          0          0          0          0          0
Primal Heuristics  :       Time      Calls      Found
  LP solutions     :       0.00          -          0
  pseudo solutions :       0.00          -          0
  oneopt           :       0.00          0          0
  rootsoldiving    :       0.00          0          0
  linesearchdiving :       0.00          0          0
  guideddiving     :       0.00          0          0
  crossover        :       0.00          0          0
  coefdiving       :       0.01          1          0
  pscostdiving     :       0.12          1          0
  fracdiving       :       0.02          1          0
  veclendiving     :       0.01          1          0
  feaspump         :       0.03          1          0
  objpscostdiving  :       0.01          1          0
  simplerounding   :       0.00          0          0
  rounding         :       0.02        290          0
  shifting         :       0.05         71          0
  intshifting      :       0.00          2          0
  fixandinfer      :       0.00          0          0
  intdiving        :       0.00          0          0
  actconsdiving    :       0.00          0          0
  octane           :       0.00          0          0
  rens             :       3.29          1          0
  rins             :       0.00          0          0
  localbranching   :       0.00          0          0
  mutation         :       0.00          0          0
  dins             :       0.00          0          0
LP                 :       Time      Calls Iterations  Iter/call   Iter/sec
  primal LP        :       0.01          0          0       0.00          -
  dual LP          :      23.35        947     151836     160.33    6502.61
  barrier LP       :       0.00          0          0       0.00          -
  diving/probing LP:       0.18         56       1025      18.30    5694.44
  strong branching :      18.52       1160     123538     106.50    6670.52
    (at root node) :          -         32       4853     151.66          -
  conflict analysis:       0.00          0          0       0.00          -
B&B Tree           :
  number of runs   :          1
  nodes            :       1057
  nodes (total)    :       1057
  nodes left       :          0
  max depth        :         36
  max depth (total):         36
  backtracks       :        172 (16.3%)
  delayed cutoffs  :         26
  repropagations   :       1040 (4046 domain reductions, 7 cutoffs)
  avg switch length:       6.41
  switching time   :       0.23
Solution           :
  Solutions found  :          0 (0 improvements)
  Primal Bound     : infeasible
  Dual Bound       :          -
  Gap              :       0.00 %
  Root Dual Bound  : +1.20978808568713e+04
